p cnf 422 1956
1 -2 0
2 -1 0
3 -4 0
4 -3 0
5 -6 0
6 -5 0
7 -8 0
8 -7 0
9 -10 0
10 -9 0
11 -12 0
12 -11 0
13 -14 0
14 -13 0
15 -16 0
16 -15 0
17 -18 0
18 -17 0
19 -20 0
20 -19 0
21 -22 0
22 -21 0
23 -24 0
24 -23 0
25 -26 0
26 -25 0
27 -28 0
28 -27 0
29 -30 0
30 -29 0
31 -32 0
32 -31 0
33 -34 0
34 -33 0
35 -36 0
36 -35 0
37 -38 0
38 -37 0
39 -40 0
40 -39 0
41 -42 0
42 -41 0
43 -44 0
44 -43 0
45 -46 0
46 -45 0
47 -48 0
48 -47 0
49 -50 0
50 -49 0
51 -52 0
52 -51 0
53 -54 0
54 -53 0
55 -56 0
56 -55 0
57 -58 0
58 -57 0
59 -60 0
60 -59 0
61 -62 0
62 -61 0
63 -64 0
64 -63 0
65 -66 0
66 -65 0
67 -68 0
68 -67 0
69 -70 0
70 -69 0
71 -72 0
72 -71 0
73 -74 0
74 -73 0
75 -76 0
76 -75 0
77 -78 0
78 -77 0
79 -80 0
80 -79 0
81 -82 0
82 -81 0
83 -84 0
84 -83 0
85 -86 0
86 -85 0
87 -88 0
88 -87 0
89 -90 0
90 -89 0
91 -92 0
92 -91 0
93 -94 0
94 -93 0
95 -96 0
96 -95 0
97 -98 0
98 -97 0
99 -100 0
100 -99 0
101 -102 0
102 -101 0
103 -104 0
104 -103 0
105 -106 0
106 -105 0
107 -108 0
108 -107 0
109 -110 0
110 -109 0
111 -112 0
112 -111 0
113 -114 0
114 -113 0
115 -116 0
116 -115 0
117 -118 0
118 -117 0
119 -120 0
120 -119 0
121 -122 0
122 -121 0
123 -124 0
124 -123 0
125 -126 0
126 -125 0
127 -128 0
128 -127 0
129 -130 0
130 -129 0
131 -132 0
132 -131 0
133 -134 0
134 -133 0
135 -136 0
136 -135 0
137 -138 0
138 -137 0
139 -140 0
140 -139 0
141 -142 0
142 -141 0
143 -144 0
144 -143 0
145 -146 0
146 -145 0
147 -148 0
148 -147 0
149 -150 0
150 -149 0
151 -152 0
152 -151 0
153 -154 0
154 -153 0
155 -156 0
156 -155 0
157 -158 0
158 -157 0
159 -160 0
160 -159 0
161 -162 0
162 -161 0
163 -164 0
164 -163 0
-165 166 -167 0
-165 -166 167 0
-166 -167 165 0
166 165 167 0
-165 0
163 -131 -168 0
131 -163 -168 0
-131 -163 168 0
163 131 168 0
-47 79 -169 0
47 -79 -169 0
-47 -79 169 0
47 79 169 0
77 -45 -170 0
-77 45 -170 0
-77 -45 170 0
77 45 170 0
-103 135 -171 0
-135 103 -171 0
-103 -135 171 0
103 135 171 0
133 -101 -172 0
101 -133 -172 0
-133 -101 172 0
133 101 172 0
137 -105 -173 0
105 -137 -173 0
-137 -105 173 0
137 105 173 0
141 -109 -174 0
-141 109 -174 0
-109 -141 174 0
141 109 174 0
139 -107 -175 0
107 -139 -175 0
-107 -139 175 0
139 107 175 0
69 -37 -176 0
-69 37 -176 0
-69 -37 176 0
69 37 176 0
-43 75 -177 0
43 -75 -177 0
-43 -75 177 0
43 75 177 0
73 -41 -178 0
-73 41 -178 0
-73 -41 178 0
41 73 178 0
-39 71 -179 0
39 -71 -179 0
-39 -71 179 0
71 39 179 0
145 -113 -180 0
113 -145 -180 0
-113 -145 180 0
113 145 180 0
149 -117 -181 0
-149 117 -181 0
-117 -149 181 0
149 117 181 0
147 -115 -182 0
115 -147 -182 0
-147 -115 182 0
115 147 182 0
-51 83 -183 0
51 -83 -183 0
-51 -83 183 0
51 83 183 0
81 -49 -184 0
49 -81 -184 0
-81 -49 184 0
49 81 184 0
-55 87 -185 0
55 -87 -185 0
-55 -87 185 0
55 87 185 0
85 -53 -186 0
53 -85 -186 0
-53 -85 186 0
53 85 186 0
143 -111 -187 0
-143 111 -187 0
-111 -143 187 0
143 111 187 0
-125 157 -188 0
-157 125 -188 0
-125 -157 188 0
157 125 188 0
161 -129 -189 0
129 -161 -189 0
-129 -161 189 0
161 129 189 0
159 -127 -190 0
127 -159 -190 0
-127 -159 190 0
159 127 190 0
-31 63 -191 0
31 -63 -191 0
-31 -63 191 0
31 63 191 0
-35 67 -192 0
-67 35 -192 0
-67 -35 192 0
35 67 192 0
-33 65 -193 0
-65 33 -193 0
-33 -65 193 0
65 33 193 0
89 -57 -194 0
57 -89 -194 0
-89 -57 194 0
57 89 194 0
93 -61 -195 0
61 -93 -195 0
-93 -61 195 0
93 61 195 0
91 -59 -196 0
59 -91 -196 0
-59 -91 196 0
59 91 196 0
151 -119 -197 0
-151 119 -197 0
-151 -119 197 0
151 119 197 0
155 -123 -198 0
123 -155 -198 0
-155 -123 198 0
123 155 198 0
153 -121 -199 0
121 -153 -199 0
-153 -121 199 0
121 153 199 0
199 200 0
198 200 0
197 200 0
196 200 0
195 200 0
194 200 0
193 200 0
192 200 0
191 200 0
190 200 0
189 200 0
188 200 0
187 200 0
186 200 0
185 200 0
184 200 0
183 200 0
182 200 0
181 200 0
180 200 0
179 200 0
178 200 0
177 200 0
176 200 0
175 200 0
174 200 0
173 200 0
172 200 0
171 200 0
170 200 0
169 200 0
168 200 0
-168 -169 -170 -171 -172 -173 -174 -175 -176 -177 -178 -179 -180 -181 -182 -183 -184 -185 -186 -187 -188 -189 -190 -191 -192 -193 -194 -195 -196 -197 -198 -199 -200 0
-5 201 0
-1 201 0
3 201 0
5 1 -3 -201 0
-31 202 0
-33 202 0
-35 202 0
-37 202 0
-39 202 0
-41 202 0
-43 202 0
-45 202 0
-47 202 0
-49 202 0
-51 202 0
-53 202 0
-55 202 0
-57 202 0
-59 202 0
-61 202 0
31 33 35 37 39 41 43 45 47 49 51 53 55 57 59 61 -202 0
-99 203 0
-201 -202 203 0
99 202 -203 0
99 201 -203 0
99 -203 -204 0
-99 203 -204 0
204 -99 -203 0
99 203 204 0
-3 205 0
-5 205 0
1 205 0
3 5 -1 -205 0
-97 206 0
-202 -205 206 0
97 202 -206 0
97 205 -206 0
97 -206 -207 0
-97 206 -207 0
207 -97 -206 0
97 206 207 0
-1 208 0
-3 208 0
-5 208 0
1 3 5 -208 0
-95 209 0
-202 -208 209 0
95 202 -209 0
95 208 -209 0
95 -209 -210 0
-95 209 -210 0
210 -95 -209 0
95 209 210 0
125 211 0
109 211 0
111 211 0
113 211 0
105 211 0
103 211 0
95 211 0
107 211 0
117 211 0
115 211 0
101 211 0
119 211 0
121 211 0
123 211 0
-125 -109 -111 -113 -105 -103 -95 -107 -117 -115 -101 -119 -121 -123 -211 0
127 -211 -212 0
-127 211 -212 0
212 -127 -211 0
127 211 212 0
109 213 0
111 213 0
113 213 0
105 213 0
103 213 0
95 213 0
107 213 0
117 213 0
115 213 0
101 213 0
119 213 0
121 213 0
123 213 0
-109 -111 -113 -105 -103 -95 -107 -117 -115 -101 -119 -121 -123 -213 0
125 -213 -214 0
-125 213 -214 0
214 -125 -213 0
125 213 214 0
109 215 0
111 215 0
113 215 0
105 215 0
103 215 0
95 215 0
107 215 0
117 215 0
115 215 0
101 215 0
119 215 0
121 215 0
-109 -111 -113 -105 -103 -95 -107 -117 -115 -101 -119 -121 -215 0
123 -215 -216 0
-123 215 -216 0
216 -123 -215 0
123 215 216 0
109 217 0
111 217 0
113 217 0
105 217 0
103 217 0
95 217 0
107 217 0
117 217 0
115 217 0
101 217 0
119 217 0
-109 -111 -113 -105 -103 -95 -107 -117 -115 -101 -119 -217 0
121 -217 -218 0
-121 217 -218 0
218 -121 -217 0
121 217 218 0
109 219 0
111 219 0
113 219 0
105 219 0
103 219 0
95 219 0
107 219 0
117 219 0
115 219 0
101 219 0
-109 -111 -113 -105 -103 -95 -107 -117 -115 -101 -219 0
119 -219 -220 0
-119 219 -220 0
220 -119 -219 0
119 219 220 0
101 -95 -221 0
95 -101 -221 0
-95 -101 221 0
95 101 221 0
105 222 0
103 222 0
95 222 0
107 222 0
101 222 0
-105 -103 -95 -107 -101 -222 0
109 -222 -223 0
-109 222 -223 0
223 -109 -222 0
109 222 223 0
95 224 0
101 224 0
-95 -101 -224 0
103 -224 -225 0
-103 224 -225 0
225 -103 -224 0
103 224 225 0
109 226 0
111 226 0
113 226 0
105 226 0
103 226 0
95 226 0
107 226 0
115 226 0
101 226 0
-109 -111 -113 -105 -103 -95 -107 -115 -101 -226 0
117 -226 -227 0
-117 226 -227 0
227 -117 -226 0
117 226 227 0
105 228 0
103 228 0
95 228 0
101 228 0
-105 -103 -95 -101 -228 0
107 -228 -229 0
-107 228 -229 0
229 -107 -228 0
107 228 229 0
103 230 0
95 230 0
101 230 0
-103 -95 -101 -230 0
105 -230 -231 0
-105 230 -231 0
231 -105 -230 0
105 230 231 0
109 232 0
105 232 0
103 232 0
95 232 0
107 232 0
101 232 0
-109 -105 -103 -95 -107 -101 -232 0
111 -232 -233 0
-111 232 -233 0
233 -111 -232 0
111 232 233 0
109 234 0
111 234 0
113 234 0
105 234 0
103 234 0
95 234 0
107 234 0
101 234 0
-109 -111 -113 -105 -103 -95 -107 -101 -234 0
115 -234 -235 0
-115 234 -235 0
235 -115 -234 0
115 234 235 0
109 236 0
111 236 0
105 236 0
103 236 0
95 236 0
107 236 0
101 236 0
-109 -111 -105 -103 -95 -107 -101 -236 0
113 -236 -237 0
-113 236 -237 0
237 -113 -236 0
113 236 237 0
237 238 0
235 238 0
233 238 0
231 238 0
229 238 0
227 238 0
97 238 0
225 238 0
223 238 0
-221 238 0
220 238 0
218 238 0
216 238 0
214 238 0
212 238 0
-97 -212 -214 -216 -218 -220 221 -223 -225 -227 -229 -231 -233 -235 -237 -238 0
125 239 0
109 239 0
111 239 0
113 239 0
127 239 0
105 239 0
103 239 0
95 239 0
107 239 0
117 239 0
115 239 0
101 239 0
119 239 0
121 239 0
123 239 0
-125 -109 -111 -113 -127 -105 -103 -95 -107 -117 -115 -101 -119 -121 -123 -239 0
129 -239 -240 0
-129 239 -240 0
240 -129 -239 0
129 239 240 0
-238 240 -241 0
238 -240 -241 0
-238 -240 241 0
238 240 241 0
237 242 0
235 242 0
233 242 0
231 242 0
229 242 0
227 242 0
97 242 0
225 242 0
223 242 0
-221 242 0
220 242 0
218 242 0
216 242 0
214 242 0
-97 -214 -216 -218 -220 221 -223 -225 -227 -229 -231 -233 -235 -237 -242 0
212 -242 -243 0
-212 242 -243 0
243 -212 -242 0
212 242 243 0
237 244 0
235 244 0
233 244 0
231 244 0
229 244 0
227 244 0
97 244 0
225 244 0
223 244 0
-221 244 0
220 244 0
218 244 0
216 244 0
-97 -216 -218 -220 221 -223 -225 -227 -229 -231 -233 -235 -237 -244 0
214 -244 -245 0
-214 244 -245 0
245 -214 -244 0
214 244 245 0
237 246 0
235 246 0
233 246 0
231 246 0
229 246 0
227 246 0
97 246 0
225 246 0
223 246 0
-221 246 0
220 246 0
218 246 0
-97 -218 -220 221 -223 -225 -227 -229 -231 -233 -235 -237 -246 0
216 -246 -247 0
-216 246 -247 0
247 -216 -246 0
216 246 247 0
237 248 0
235 248 0
233 248 0
231 248 0
229 248 0
227 248 0
97 248 0
225 248 0
223 248 0
-221 248 0
220 248 0
-97 -220 221 -223 -225 -227 -229 -231 -233 -235 -237 -248 0
218 -248 -249 0
-218 248 -249 0
249 -218 -248 0
218 248 249 0
237 250 0
235 250 0
233 250 0
231 250 0
229 250 0
227 250 0
97 250 0
225 250 0
223 250 0
-221 250 0
-97 221 -223 -225 -227 -229 -231 -233 -235 -237 -250 0
220 -250 -251 0
-220 250 -251 0
251 -220 -250 0
220 250 251 0
-97 221 -252 0
97 -221 -252 0
-97 -221 252 0
97 221 252 0
233 253 0
231 253 0
229 253 0
97 253 0
225 253 0
223 253 0
-221 253 0
-97 221 -223 -225 -229 -231 -233 -253 0
237 -253 -254 0
-237 253 -254 0
254 -237 -253 0
237 253 254 0
237 255 0
235 255 0
233 255 0
231 255 0
229 255 0
97 255 0
225 255 0
223 255 0
-221 255 0
-97 221 -223 -225 -229 -231 -233 -235 -237 -255 0
227 -255 -256 0
-227 255 -256 0
256 -227 -255 0
227 255 256 0
237 257 0
233 257 0
231 257 0
229 257 0
97 257 0
225 257 0
223 257 0
-221 257 0
-97 221 -223 -225 -229 -231 -233 -237 -257 0
235 -257 -258 0
-235 257 -258 0
258 -235 -257 0
235 257 258 0
231 259 0
97 259 0
225 259 0
-221 259 0
-97 221 -225 -231 -259 0
229 -259 -260 0
-229 259 -260 0
260 -229 -259 0
229 259 260 0
231 261 0
229 261 0
97 261 0
225 261 0
223 261 0
-221 261 0
-97 221 -223 -225 -229 -231 -261 0
233 -261 -262 0
-233 261 -262 0
262 -233 -261 0
233 261 262 0
231 263 0
229 263 0
97 263 0
225 263 0
-221 263 0
-97 221 -225 -229 -231 -263 0
223 -263 -264 0
-223 263 -264 0
264 -223 -263 0
223 263 264 0
97 265 0
225 265 0
-221 265 0
-97 221 -225 -265 0
231 -265 -266 0
-231 265 -266 0
266 -231 -265 0
231 265 266 0
97 267 0
-221 267 0
-97 221 -267 0
225 -267 -268 0
-225 267 -268 0
268 -225 -267 0
225 267 268 0
268 269 0
266 269 0
264 269 0
262 269 0
260 269 0
258 269 0
256 269 0
99 269 0
254 269 0
252 269 0
251 269 0
249 269 0
247 269 0
245 269 0
243 269 0
241 269 0
-99 -241 -243 -245 -247 -249 -251 -252 -254 -256 -258 -260 -262 -264 -266 -268 -269 0
237 270 0
235 270 0
233 270 0
231 270 0
229 270 0
227 270 0
97 270 0
225 270 0
223 270 0
-221 270 0
220 270 0
218 270 0
216 270 0
214 270 0
212 270 0
240 270 0
-97 -212 -214 -216 -218 -220 221 -223 -225 -227 -229 -231 -233 -235 -237 -240 -270 0
125 271 0
109 271 0
129 271 0
111 271 0
113 271 0
127 271 0
105 271 0
103 271 0
95 271 0
107 271 0
117 271 0
115 271 0
101 271 0
119 271 0
121 271 0
123 271 0
-125 -109 -129 -111 -113 -127 -105 -103 -95 -107 -117 -115 -101 -119 -121 -123 -271 0
131 -271 -272 0
-131 271 -272 0
272 -131 -271 0
131 271 272 0
269 270 272 -273 0
-269 -270 272 -273 0
-269 270 -272 -273 0
269 -270 -272 -273 0
-269 -270 -272 273 0
269 270 -272 273 0
269 -270 272 273 0
-269 270 272 273 0
-202 273 -274 0
131 202 -274 0
-202 -273 274 0
-131 202 274 0
131 273 -274 0
-131 -273 274 0
163 -274 -275 0
-163 274 -275 0
275 -163 -274 0
163 274 275 0
268 276 0
266 276 0
264 276 0
262 276 0
260 276 0
258 276 0
256 276 0
99 276 0
254 276 0
252 276 0
251 276 0
249 276 0
247 276 0
245 276 0
243 276 0
-99 -243 -245 -247 -249 -251 -252 -254 -256 -258 -260 -262 -264 -266 -268 -276 0
241 -276 -277 0
-241 276 -277 0
277 -241 -276 0
241 276 277 0
-202 277 -278 0
129 202 -278 0
-202 -277 278 0
-129 202 278 0
129 277 -278 0
-129 -277 278 0
161 -278 -279 0
-161 278 -279 0
279 -161 -278 0
161 278 279 0
268 280 0
266 280 0
264 280 0
262 280 0
260 280 0
258 280 0
256 280 0
99 280 0
254 280 0
252 280 0
251 280 0
249 280 0
247 280 0
245 280 0
-99 -245 -247 -249 -251 -252 -254 -256 -258 -260 -262 -264 -266 -268 -280 0
243 -280 -281 0
-243 280 -281 0
281 -243 -280 0
243 280 281 0
-202 281 -282 0
127 202 -282 0
-202 -281 282 0
-127 202 282 0
127 281 -282 0
-127 -281 282 0
159 -282 -283 0
-159 282 -283 0
283 -159 -282 0
159 282 283 0
268 284 0
266 284 0
264 284 0
262 284 0
260 284 0
258 284 0
256 284 0
99 284 0
254 284 0
252 284 0
251 284 0
249 284 0
247 284 0
-99 -247 -249 -251 -252 -254 -256 -258 -260 -262 -264 -266 -268 -284 0
245 -284 -285 0
-245 284 -285 0
285 -245 -284 0
245 284 285 0
-202 285 -286 0
125 202 -286 0
-202 -285 286 0
-125 202 286 0
125 285 -286 0
-125 -285 286 0
157 -286 -287 0
-157 286 -287 0
287 -157 -286 0
157 286 287 0
268 288 0
266 288 0
264 288 0
262 288 0
260 288 0
258 288 0
256 288 0
99 288 0
254 288 0
252 288 0
251 288 0
249 288 0
-99 -249 -251 -252 -254 -256 -258 -260 -262 -264 -266 -268 -288 0
247 -288 -289 0
-247 288 -289 0
289 -247 -288 0
247 288 289 0
-202 289 -290 0
123 202 -290 0
-202 -289 290 0
-123 202 290 0
123 289 -290 0
-123 -289 290 0
155 -290 -291 0
-155 290 -291 0
291 -155 -290 0
155 290 291 0
268 292 0
266 292 0
264 292 0
262 292 0
260 292 0
258 292 0
256 292 0
99 292 0
254 292 0
252 292 0
251 292 0
-99 -251 -252 -254 -256 -258 -260 -262 -264 -266 -268 -292 0
249 -292 -293 0
-249 292 -293 0
293 -249 -292 0
249 292 293 0
-202 293 -294 0
121 202 -294 0
-202 -293 294 0
-121 202 294 0
121 293 -294 0
-121 -293 294 0
153 -294 -295 0
-153 294 -295 0
295 -153 -294 0
153 294 295 0
-31 296 0
-31 -33 296 0
-33 296 0
31 33 -296 0
-35 -296 297 0
-31 297 0
-31 -33 297 0
-35 297 0
-33 297 0
31 35 33 -297 0
31 35 33 296 -297 0
-31 298 0
-31 -33 298 0
-33 298 0
31 33 -298 0
-35 -298 299 0
-31 299 0
-31 -33 299 0
-35 299 0
-37 -297 299 0
-33 299 0
-37 299 0
31 35 33 37 -299 0
31 35 33 37 298 -299 0
31 35 33 37 297 -299 0
31 35 33 37 297 298 -299 0
-35 -298 300 0
-31 300 0
-31 -33 300 0
-35 300 0
-33 300 0
31 35 33 -300 0
31 35 33 298 -300 0
-31 301 0
-31 -33 301 0
-33 301 0
31 33 -301 0
-35 -301 302 0
-31 302 0
-31 -33 302 0
-35 302 0
-39 302 0
-37 -300 302 0
-39 -299 302 0
-33 302 0
-37 302 0
31 35 39 33 37 -302 0
31 35 39 33 37 301 -302 0
31 35 39 33 37 300 -302 0
31 35 39 33 37 300 301 -302 0
31 35 39 33 37 299 -302 0
31 35 39 33 37 299 301 -302 0
31 35 39 33 37 299 300 -302 0
31 35 39 33 37 299 300 301 -302 0
41 303 0
302 303 0
-41 -302 -303 0
39 304 0
299 304 0
-39 -299 -304 0
-35 -301 305 0
-31 305 0
-31 -33 305 0
-35 305 0
-33 305 0
31 35 33 -305 0
31 35 33 301 -305 0
-35 -301 306 0
-31 306 0
-31 -33 306 0
-41 306 0
-35 306 0
-39 306 0
-37 -305 306 0
-39 -299 306 0
303 306 0
-33 306 0
-37 306 0
31 41 35 39 33 37 -303 -306 0
31 41 35 39 33 37 301 -303 -306 0
31 41 35 39 33 37 -303 305 -306 0
31 41 35 39 33 37 301 -303 305 -306 0
31 41 35 39 33 37 299 -303 -306 0
31 41 35 39 33 37 299 301 -303 -306 0
31 41 35 39 33 37 299 -303 305 -306 0
31 41 35 39 33 37 299 301 -303 305 -306 0
-31 307 0
-31 -33 307 0
-33 307 0
31 33 -307 0
-35 -307 308 0
-31 308 0
-31 -33 308 0
-41 308 0
-43 308 0
-35 308 0
-39 308 0
-43 -306 308 0
-37 -305 308 0
304 308 0
303 308 0
-33 308 0
-37 308 0
31 41 43 35 39 33 37 -303 -304 -308 0
31 41 43 35 39 33 37 -303 -304 307 -308 0
31 41 43 35 39 33 37 -303 -304 306 -308 0
31 41 43 35 39 33 37 -303 -304 306 307 -308 0
31 41 43 35 39 33 37 -303 -304 305 -308 0
31 41 43 35 39 33 37 -303 -304 305 307 -308 0
31 41 43 35 39 33 37 -303 -304 305 306 -308 0
31 41 43 35 39 33 37 -303 -304 305 306 307 -308 0
45 -308 -309 0
-45 308 -309 0
309 -45 -308 0
45 308 309 0
-202 309 -310 0
45 202 -310 0
-202 -309 310 0
-45 202 310 0
45 309 -310 0
-45 -309 310 0
77 -310 -311 0
-77 310 -311 0
311 -77 -310 0
77 310 311 0
37 312 0
305 312 0
-37 -305 -312 0
43 313 0
306 313 0
-43 -306 -313 0
-45 -308 314 0
-35 -307 314 0
-31 314 0
-31 -33 314 0
-41 314 0
-43 314 0
-45 314 0
-35 314 0
-39 314 0
-43 -306 314 0
312 314 0
304 314 0
303 314 0
-33 314 0
-37 314 0
31 41 43 45 35 39 33 37 -303 -304 -312 -314 0
31 41 43 45 35 39 33 37 -303 -304 308 -312 -314 0
31 41 43 45 35 39 33 37 -303 -304 307 -312 -314 0
31 41 43 45 35 39 33 37 -303 -304 307 308 -312 -314 0
31 41 43 45 35 39 33 37 -303 -304 306 -312 -314 0
31 41 43 45 35 39 33 37 -303 -304 306 308 -312 -314 0
31 41 43 45 35 39 33 37 -303 -304 306 307 -312 -314 0
31 41 43 45 35 39 33 37 -303 -304 306 307 308 -312 -314 0
-45 -308 315 0
-47 -314 315 0
-35 -307 315 0
-31 315 0
-31 -33 315 0
-41 315 0
-47 315 0
-43 315 0
-45 315 0
-35 315 0
-39 315 0
313 315 0
312 315 0
304 315 0
303 315 0
-33 315 0
-37 315 0
31 41 47 43 45 35 39 33 37 -303 -304 -312 -313 -315 0
31 41 47 43 45 35 39 33 37 -303 -304 308 -312 -313 -315 0
31 41 47 43 45 35 39 33 37 -303 -304 -312 -313 314 -315 0
31 41 47 43 45 35 39 33 37 -303 -304 308 -312 -313 314 -315 0
31 41 47 43 45 35 39 33 37 -303 -304 307 -312 -313 -315 0
31 41 47 43 45 35 39 33 37 -303 -304 307 308 -312 -313 -315 0
31 41 47 43 45 35 39 33 37 -303 -304 307 -312 -313 314 -315 0
31 41 47 43 45 35 39 33 37 -303 -304 307 308 -312 -313 314 -315 0
49 316 0
315 316 0
-49 -315 -316 0
-45 -308 317 0
-47 -314 317 0
-35 -307 317 0
-31 317 0
-31 -33 317 0
-41 317 0
-49 317 0
316 317 0
-47 317 0
-43 317 0
-45 317 0
-35 317 0
-39 317 0
313 317 0
312 317 0
304 317 0
303 317 0
-33 317 0
-37 317 0
31 41 49 47 43 45 35 39 33 37 -303 -304 -312 -313 -316 -317 0
31 41 49 47 43 45 35 39 33 37 -303 -304 308 -312 -313 -316 -317 0
31 41 49 47 43 45 35 39 33 37 -303 -304 -312 -313 314 -316 -317 0
31 41 49 47 43 45 35 39 33 37 -303 -304 308 -312 -313 314 -316 -317 0
31 41 49 47 43 45 35 39 33 37 -303 -304 307 -312 -313 -316 -317 0
31 41 49 47 43 45 35 39 33 37 -303 -304 307 308 -312 -313 -316 -317 0
31 41 49 47 43 45 35 39 33 37 -303 -304 307 -312 -313 314 -316 -317 0
31 41 49 47 43 45 35 39 33 37 -303 -304 307 308 -312 -313 314 -316 -317 0
51 318 0
317 318 0
-51 -317 -318 0
31 319 0
33 319 0
-31 -33 -319 0
-45 -308 320 0
-47 -314 320 0
-35 -307 320 0
-31 320 0
-31 -33 320 0
-41 320 0
-49 320 0
318 320 0
316 320 0
-51 320 0
-47 320 0
-43 320 0
-45 320 0
-35 320 0
-39 320 0
313 320 0
312 320 0
304 320 0
303 320 0
-33 320 0
-37 320 0
31 41 49 51 47 43 45 35 39 33 37 -303 -304 -312 -313 -316 -318 -320 0
31 41 49 51 47 43 45 35 39 33 37 -303 -304 308 -312 -313 -316 -318 -320 0
31 41 49 51 47 43 45 35 39 33 37 -303 -304 -312 -313 314 -316 -318 -320 0
31 41 49 51 47 43 45 35 39 33 37 -303 -304 308 -312 -313 314 -316 -318 -320 0
31 41 49 51 47 43 45 35 39 33 37 -303 -304 307 -312 -313 -316 -318 -320 0
31 41 49 51 47 43 45 35 39 33 37 -303 -304 307 308 -312 -313 -316 -318 -320 0
31 41 49 51 47 43 45 35 39 33 37 -303 -304 307 -312 -313 314 -316 -318 -320 0
31 41 49 51 47 43 45 35 39 33 37 -303 -304 307 308 -312 -313 314 -316 -318 -320 0
-45 -308 321 0
-35 -307 321 0
-31 321 0
-31 -33 321 0
-41 321 0
-43 321 0
-45 321 0
-35 321 0
-39 321 0
-43 -306 321 0
312 321 0
304 321 0
303 321 0
-33 321 0
-37 321 0
31 41 43 45 35 39 33 37 -303 -304 -312 -321 0
31 41 43 45 35 39 33 37 -303 -304 308 -312 -321 0
31 41 43 45 35 39 33 37 -303 -304 307 -312 -321 0
31 41 43 45 35 39 33 37 -303 -304 307 308 -312 -321 0
31 41 43 45 35 39 33 37 -303 -304 306 -312 -321 0
31 41 43 45 35 39 33 37 -303 -304 306 308 -312 -321 0
31 41 43 45 35 39 33 37 -303 -304 306 307 -312 -321 0
31 41 43 45 35 39 33 37 -303 -304 306 307 308 -312 -321 0
-45 -308 322 0
-47 -321 322 0
-53 -320 322 0
-35 -307 322 0
-31 322 0
319 322 0
-41 322 0
-49 322 0
318 322 0
316 322 0
-51 322 0
-53 322 0
-47 322 0
-43 322 0
-45 322 0
-35 322 0
-39 322 0
313 322 0
312 322 0
304 322 0
303 322 0
-33 322 0
-37 322 0
31 41 49 51 53 47 43 45 35 39 33 37 -303 -304 -312 -313 -316 -318 -319 -322 0
31 41 49 51 53 47 43 45 35 39 33 37 -303 -304 308 -312 -313 -316 -318 -319 -322 0
31 41 49 51 53 47 43 45 35 39 33 37 -303 -304 -312 -313 -316 -318 -319 321 -322 0
31 41 49 51 53 47 43 45 35 39 33 37 -303 -304 308 -312 -313 -316 -318 -319 321 -322 0
31 41 49 51 53 47 43 45 35 39 33 37 -303 -304 -312 -313 -316 -318 -319 320 -322 0
31 41 49 51 53 47 43 45 35 39 33 37 -303 -304 308 -312 -313 -316 -318 -319 320 -322 0
31 41 49 51 53 47 43 45 35 39 33 37 -303 -304 -312 -313 -316 -318 -319 320 321 -322 0
31 41 49 51 53 47 43 45 35 39 33 37 -303 -304 308 -312 -313 -316 -318 -319 320 321 -322 0
31 41 49 51 53 47 43 45 35 39 33 37 -303 -304 307 -312 -313 -316 -318 -319 -322 0
31 41 49 51 53 47 43 45 35 39 33 37 -303 -304 307 308 -312 -313 -316 -318 -319 -322 0
31 41 49 51 53 47 43 45 35 39 33 37 -303 -304 307 -312 -313 -316 -318 -319 321 -322 0
31 41 49 51 53 47 43 45 35 39 33 37 -303 -304 307 308 -312 -313 -316 -318 -319 321 -322 0
31 41 49 51 53 47 43 45 35 39 33 37 -303 -304 307 -312 -313 -316 -318 -319 320 -322 0
31 41 49 51 53 47 43 45 35 39 33 37 -303 -304 307 308 -312 -313 -316 -318 -319 320 -322 0
31 41 49 51 53 47 43 45 35 39 33 37 -303 -304 307 -312 -313 -316 -318 -319 320 321 -322 0
31 41 49 51 53 47 43 45 35 39 33 37 -303 -304 307 308 -312 -313 -316 -318 -319 320 321 -322 0
55 323 0
322 323 0
-55 -322 -323 0
49 324 0
315 324 0
-49 -315 -324 0
51 325 0
317 325 0
-51 -317 -325 0
31 326 0
33 326 0
-31 -33 -326 0
-45 -308 327 0
-47 -321 327 0
-35 -307 327 0
-31 327 0
-31 -33 327 0
-41 327 0
-49 327 0
325 327 0
324 327 0
-51 327 0
-47 327 0
-43 327 0
-45 327 0
-35 327 0
-39 327 0
313 327 0
312 327 0
304 327 0
303 327 0
-33 327 0
-37 327 0
31 41 49 51 47 43 45 35 39 33 37 -303 -304 -312 -313 -324 -325 -327 0
31 41 49 51 47 43 45 35 39 33 37 -303 -304 308 -312 -313 -324 -325 -327 0
31 41 49 51 47 43 45 35 39 33 37 -303 -304 -312 -313 321 -324 -325 -327 0
31 41 49 51 47 43 45 35 39 33 37 -303 -304 308 -312 -313 321 -324 -325 -327 0
31 41 49 51 47 43 45 35 39 33 37 -303 -304 307 -312 -313 -324 -325 -327 0
31 41 49 51 47 43 45 35 39 33 37 -303 -304 307 308 -312 -313 -324 -325 -327 0
31 41 49 51 47 43 45 35 39 33 37 -303 -304 307 -312 -313 321 -324 -325 -327 0
31 41 49 51 47 43 45 35 39 33 37 -303 -304 307 308 -312 -313 321 -324 -325 -327 0
-45 -308 328 0
-35 -307 328 0
-31 328 0
-31 -33 328 0
-41 328 0
-43 328 0
-45 328 0
-35 328 0
-39 328 0
-43 -306 328 0
312 328 0
304 328 0
303 328 0
-33 328 0
-37 328 0
31 41 43 45 35 39 33 37 -303 -304 -312 -328 0
31 41 43 45 35 39 33 37 -303 -304 308 -312 -328 0
31 41 43 45 35 39 33 37 -303 -304 307 -312 -328 0
31 41 43 45 35 39 33 37 -303 -304 307 308 -312 -328 0
31 41 43 45 35 39 33 37 -303 -304 306 -312 -328 0
31 41 43 45 35 39 33 37 -303 -304 306 308 -312 -328 0
31 41 43 45 35 39 33 37 -303 -304 306 307 -312 -328 0
31 41 43 45 35 39 33 37 -303 -304 306 307 308 -312 -328 0
-45 -308 329 0
-47 -328 329 0
-53 -327 329 0
-35 -307 329 0
-31 329 0
326 329 0
-41 329 0
-49 329 0
325 329 0
324 329 0
323 329 0
-51 329 0
-53 329 0
-55 329 0
-47 329 0
-43 329 0
-45 329 0
-35 329 0
-39 329 0
313 329 0
312 329 0
304 329 0
303 329 0
-33 329 0
-37 329 0
31 41 49 51 53 55 47 43 45 35 39 33 37 -303 -304 -312 -313 -323 -324 -325 -326 -329 0
31 41 49 51 53 55 47 43 45 35 39 33 37 -303 -304 308 -312 -313 -323 -324 -325 -326 -329 0
31 41 49 51 53 55 47 43 45 35 39 33 37 -303 -304 -312 -313 -323 -324 -325 -326 328 -329 0
31 41 49 51 53 55 47 43 45 35 39 33 37 -303 -304 308 -312 -313 -323 -324 -325 -326 328 -329 0
31 41 49 51 53 55 47 43 45 35 39 33 37 -303 -304 -312 -313 -323 -324 -325 -326 327 -329 0
31 41 49 51 53 55 47 43 45 35 39 33 37 -303 -304 308 -312 -313 -323 -324 -325 -326 327 -329 0
31 41 49 51 53 55 47 43 45 35 39 33 37 -303 -304 -312 -313 -323 -324 -325 -326 327 328 -329 0
31 41 49 51 53 55 47 43 45 35 39 33 37 -303 -304 308 -312 -313 -323 -324 -325 -326 327 328 -329 0
31 41 49 51 53 55 47 43 45 35 39 33 37 -303 -304 307 -312 -313 -323 -324 -325 -326 -329 0
31 41 49 51 53 55 47 43 45 35 39 33 37 -303 -304 307 308 -312 -313 -323 -324 -325 -326 -329 0
31 41 49 51 53 55 47 43 45 35 39 33 37 -303 -304 307 -312 -313 -323 -324 -325 -326 328 -329 0
31 41 49 51 53 55 47 43 45 35 39 33 37 -303 -304 307 308 -312 -313 -323 -324 -325 -326 328 -329 0
31 41 49 51 53 55 47 43 45 35 39 33 37 -303 -304 307 -312 -313 -323 -324 -325 -326 327 -329 0
31 41 49 51 53 55 47 43 45 35 39 33 37 -303 -304 307 308 -312 -313 -323 -324 -325 -326 327 -329 0
31 41 49 51 53 55 47 43 45 35 39 33 37 -303 -304 307 -312 -313 -323 -324 -325 -326 327 328 -329 0
31 41 49 51 53 55 47 43 45 35 39 33 37 -303 -304 307 308 -312 -313 -323 -324 -325 -326 327 328 -329 0
57 -329 -330 0
-57 329 -330 0
330 -57 -329 0
57 329 330 0
-202 330 -331 0
57 202 -331 0
-202 -330 331 0
-57 202 331 0
57 330 -331 0
-57 -330 331 0
89 -331 -332 0
-89 331 -332 0
332 -89 -331 0
89 331 332 0
268 333 0
266 333 0
264 333 0
262 333 0
260 333 0
99 333 0
252 333 0
-99 -252 -260 -262 -264 -266 -268 -333 0
254 -333 -334 0
-254 333 -334 0
334 -254 -333 0
254 333 334 0
-202 334 -335 0
113 202 -335 0
-202 -334 335 0
-113 202 335 0
113 334 -335 0
-113 -334 335 0
145 -335 -336 0
-145 335 -336 0
336 -145 -335 0
145 335 336 0
268 337 0
266 337 0
264 337 0
262 337 0
260 337 0
99 337 0
254 337 0
252 337 0
-99 -252 -254 -260 -262 -264 -266 -268 -337 0
258 -337 -338 0
-258 337 -338 0
338 -258 -337 0
258 337 338 0
-202 338 -339 0
115 202 -339 0
-202 -338 339 0
-115 202 339 0
115 338 -339 0
-115 -338 339 0
147 -339 -340 0
-147 339 -340 0
340 -147 -339 0
147 339 340 0
-31 33 -341 0
31 -33 -341 0
-31 -33 341 0
31 33 341 0
-202 341 -342 0
33 202 -342 0
-202 -341 342 0
-33 202 342 0
33 341 -342 0
-33 -341 342 0
65 -342 -343 0
-65 342 -343 0
343 -65 -342 0
65 342 343 0
35 -307 -344 0
-35 307 -344 0
344 -35 -307 0
35 307 344 0
-202 344 -345 0
35 202 -345 0
-202 -344 345 0
-35 202 345 0
35 344 -345 0
-35 -344 345 0
67 -345 -346 0
-67 345 -346 0
346 -67 -345 0
67 345 346 0
41 -302 -347 0
-41 302 -347 0
347 -41 -302 0
41 302 347 0
-202 347 -348 0
41 202 -348 0
-202 -347 348 0
-41 202 348 0
41 347 -348 0
-41 -347 348 0
73 -348 -349 0
-73 348 -349 0
349 -73 -348 0
73 348 349 0
53 -327 -350 0
-53 327 -350 0
350 -53 -327 0
53 327 350 0
-202 350 -351 0
53 202 -351 0
-202 -350 351 0
-53 202 351 0
53 350 -351 0
-53 -350 351 0
85 -351 -352 0
-85 351 -352 0
352 -85 -351 0
85 351 352 0
47 -328 -353 0
-47 328 -353 0
353 -47 -328 0
47 328 353 0
-202 353 -354 0
47 202 -354 0
-202 -353 354 0
-47 202 354 0
47 353 -354 0
-47 -353 354 0
79 -354 -355 0
-79 354 -355 0
355 -79 -354 0
79 354 355 0
49 -315 -356 0
-49 315 -356 0
356 -49 -315 0
49 315 356 0
-202 356 -357 0
49 202 -357 0
-202 -356 357 0
-49 202 357 0
49 356 -357 0
-49 -356 357 0
81 -357 -358 0
-81 357 -358 0
358 -81 -357 0
81 357 358 0
268 359 0
266 359 0
264 359 0
260 359 0
99 359 0
252 359 0
-99 -252 -260 -264 -266 -268 -359 0
262 -359 -360 0
-262 359 -360 0
360 -262 -359 0
262 359 360 0
-202 360 -361 0
111 202 -361 0
-202 -360 361 0
-111 202 361 0
111 360 -361 0
-111 -360 361 0
143 -361 -362 0
-143 361 -362 0
362 -143 -361 0
143 361 362 0
31 63 202 -363 0
31 -63 -202 -363 0
-31 -63 202 -363 0
-31 63 -202 -363 0
-31 -63 -202 363 0
-31 63 202 363 0
31 63 -202 363 0
31 -63 202 363 0
268 364 0
266 364 0
264 364 0
262 364 0
260 364 0
258 364 0
99 364 0
254 364 0
252 364 0
-99 -252 -254 -258 -260 -262 -264 -266 -268 -364 0
256 -364 -365 0
-256 364 -365 0
365 -256 -364 0
256 364 365 0
-202 365 -366 0
117 202 -366 0
-202 -365 366 0
-117 202 366 0
117 365 -366 0
-117 -365 366 0
149 -366 -367 0
-149 366 -367 0
367 -149 -366 0
149 366 367 0
268 368 0
99 368 0
252 368 0
-99 -252 -268 -368 0
266 -368 -369 0
-266 368 -369 0
369 -266 -368 0
266 368 369 0
-202 369 -370 0
105 202 -370 0
-202 -369 370 0
-105 202 370 0
105 369 -370 0
-105 -369 370 0
137 -370 -371 0
-137 370 -371 0
371 -137 -370 0
137 370 371 0
-99 252 -372 0
99 -252 -372 0
-99 -252 372 0
99 252 372 0
-202 -372 -373 0
101 202 -373 0
-202 372 373 0
-101 202 373 0
101 -372 -373 0
-101 372 373 0
133 -373 -374 0
-133 373 -374 0
374 -133 -373 0
133 373 374 0
99 375 0
252 375 0
-99 -252 -375 0
268 -375 -376 0
-268 375 -376 0
376 -268 -375 0
268 375 376 0
-202 376 -377 0
103 202 -377 0
-202 -376 377 0
-103 202 377 0
103 376 -377 0
-103 -376 377 0
135 -377 -378 0
-135 377 -378 0
378 -135 -377 0
135 377 378 0
268 379 0
266 379 0
99 379 0
252 379 0
-99 -252 -266 -268 -379 0
260 -379 -380 0
-260 379 -380 0
380 -260 -379 0
260 379 380 0
-202 380 -381 0
107 202 -381 0
-202 -380 381 0
-107 202 381 0
107 380 -381 0
-107 -380 381 0
139 -381 -382 0
-139 381 -382 0
382 -139 -381 0
139 381 382 0
43 -306 -383 0
-43 306 -383 0
383 -43 -306 0
43 306 383 0
-202 383 -384 0
43 202 -384 0
-202 -383 384 0
-43 202 384 0
43 383 -384 0
-43 -383 384 0
75 -384 -385 0
-75 384 -385 0
385 -75 -384 0
75 384 385 0
51 -317 -386 0
-51 317 -386 0
386 -51 -317 0
51 317 386 0
-202 386 -387 0
51 202 -387 0
-202 -386 387 0
-51 202 387 0
51 386 -387 0
-51 -386 387 0
83 -387 -388 0
-83 387 -388 0
388 -83 -387 0
83 387 388 0
37 -305 -389 0
-37 305 -389 0
389 -37 -305 0
37 305 389 0
-202 389 -390 0
37 202 -390 0
-202 -389 390 0
-37 202 390 0
37 389 -390 0
-37 -389 390 0
69 -390 -391 0
-69 390 -391 0
391 -69 -390 0
69 390 391 0
-29 392 0
202 392 0
29 -202 -392 0
-5 392 -393 0
5 -392 -393 0
-5 -392 393 0
5 392 393 0
268 394 0
266 394 0
260 394 0
99 394 0
252 394 0
-99 -252 -260 -266 -268 -394 0
264 -394 -395 0
-264 394 -395 0
395 -264 -394 0
264 394 395 0
-202 395 -396 0
109 202 -396 0
-202 -395 396 0
-109 202 396 0
109 395 -396 0
-109 -395 396 0
141 -396 -397 0
-141 396 -397 0
397 -141 -396 0
141 396 397 0
55 -322 -398 0
-55 322 -398 0
398 -55 -322 0
55 322 398 0
-202 398 -399 0
55 202 -399 0
-202 -398 399 0
-55 202 399 0
55 398 -399 0
-55 -398 399 0
87 -399 -400 0
-87 399 -400 0
400 -87 -399 0
87 399 400 0
39 -299 -401 0
-39 299 -401 0
401 -39 -299 0
39 299 401 0
-202 401 -402 0
39 202 -402 0
-202 -401 402 0
-39 202 402 0
39 401 -402 0
-39 -401 402 0
71 -402 -403 0
-71 402 -403 0
403 -71 -402 0
71 402 403 0
57 404 0
329 404 0
-57 -329 -404 0
-45 -308 405 0
-47 -328 405 0
-53 -327 405 0
-35 -307 405 0
-31 405 0
326 405 0
-41 405 0
-49 405 0
325 405 0
324 405 0
323 405 0
-51 405 0
-53 405 0
-55 405 0
-57 405 0
-47 405 0
-43 405 0
-45 405 0
-35 405 0
-39 405 0
404 405 0
313 405 0
312 405 0
304 405 0
303 405 0
-33 405 0
-37 405 0
31 41 49 51 53 55 57 47 43 45 35 39 33 37 -303 -304 -312 -313 -323 -324 -325 -326 -404 -405 0
31 41 49 51 53 55 57 47 43 45 35 39 33 37 -303 -304 308 -312 -313 -323 -324 -325 -326 -404 -405 0
31 41 49 51 53 55 57 47 43 45 35 39 33 37 -303 -304 -312 -313 -323 -324 -325 -326 328 -404 -405 0
31 41 49 51 53 55 57 47 43 45 35 39 33 37 -303 -304 308 -312 -313 -323 -324 -325 -326 328 -404 -405 0
31 41 49 51 53 55 57 47 43 45 35 39 33 37 -303 -304 -312 -313 -323 -324 -325 -326 327 -404 -405 0
31 41 49 51 53 55 57 47 43 45 35 39 33 37 -303 -304 308 -312 -313 -323 -324 -325 -326 327 -404 -405 0
31 41 49 51 53 55 57 47 43 45 35 39 33 37 -303 -304 -312 -313 -323 -324 -325 -326 327 328 -404 -405 0
31 41 49 51 53 55 57 47 43 45 35 39 33 37 -303 -304 308 -312 -313 -323 -324 -325 -326 327 328 -404 -405 0
31 41 49 51 53 55 57 47 43 45 35 39 33 37 -303 -304 307 -312 -313 -323 -324 -325 -326 -404 -405 0
31 41 49 51 53 55 57 47 43 45 35 39 33 37 -303 -304 307 308 -312 -313 -323 -324 -325 -326 -404 -405 0
31 41 49 51 53 55 57 47 43 45 35 39 33 37 -303 -304 307 -312 -313 -323 -324 -325 -326 328 -404 -405 0
31 41 49 51 53 55 57 47 43 45 35 39 33 37 -303 -304 307 308 -312 -313 -323 -324 -325 -326 328 -404 -405 0
31 41 49 51 53 55 57 47 43 45 35 39 33 37 -303 -304 307 -312 -313 -323 -324 -325 -326 327 -404 -405 0
31 41 49 51 53 55 57 47 43 45 35 39 33 37 -303 -304 307 308 -312 -313 -323 -324 -325 -326 327 -404 -405 0
31 41 49 51 53 55 57 47 43 45 35 39 33 37 -303 -304 307 -312 -313 -323 -324 -325 -326 327 328 -404 -405 0
31 41 49 51 53 55 57 47 43 45 35 39 33 37 -303 -304 307 308 -312 -313 -323 -324 -325 -326 327 328 -404 -405 0
59 -405 -406 0
-59 405 -406 0
406 -59 -405 0
59 405 406 0
-202 406 -407 0
59 202 -407 0
-202 -406 407 0
-59 202 407 0
59 406 -407 0
-59 -406 407 0
91 -407 -408 0
-91 407 -408 0
408 -91 -407 0
91 407 408 0
268 409 0
266 409 0
264 409 0
262 409 0
260 409 0
258 409 0
256 409 0
99 409 0
254 409 0
252 409 0
-99 -252 -254 -256 -258 -260 -262 -264 -266 -268 -409 0
251 -409 -410 0
-251 409 -410 0
410 -251 -409 0
251 409 410 0
-202 410 -411 0
119 202 -411 0
-202 -410 411 0
-119 202 411 0
119 410 -411 0
-119 -410 411 0
151 -411 -412 0
-151 411 -412 0
412 -151 -411 0
151 411 412 0
-13 413 0
202 413 0
13 -202 -413 0
-1 413 -414 0
1 -413 -414 0
-1 -413 414 0
1 413 414 0
-21 415 0
202 415 0
21 -202 -415 0
-3 415 -416 0
3 -415 -416 0
-3 -415 416 0
3 415 416 0
59 417 0
405 417 0
-59 -405 -417 0
-45 -308 418 0
-47 -328 418 0
-53 -327 418 0
-35 -307 418 0
-31 418 0
326 418 0
-41 418 0
-49 418 0
-59 418 0
325 418 0
324 418 0
323 418 0
-51 418 0
-53 418 0
-55 418 0
-57 418 0
-47 418 0
-43 418 0
-45 418 0
-35 418 0
-39 418 0
417 418 0
404 418 0
313 418 0
312 418 0
304 418 0
303 418 0
-33 418 0
-37 418 0
31 41 49 59 51 53 55 57 47 43 45 35 39 33 37 -303 -304 -312 -313 -323 -324 -325 -326 -404 -417 -418 0
31 41 49 59 51 53 55 57 47 43 45 35 39 33 37 -303 -304 308 -312 -313 -323 -324 -325 -326 -404 -417 -418 0
31 41 49 59 51 53 55 57 47 43 45 35 39 33 37 -303 -304 -312 -313 -323 -324 -325 -326 328 -404 -417 -418 0
31 41 49 59 51 53 55 57 47 43 45 35 39 33 37 -303 -304 308 -312 -313 -323 -324 -325 -326 328 -404 -417 -418 0
31 41 49 59 51 53 55 57 47 43 45 35 39 33 37 -303 -304 -312 -313 -323 -324 -325 -326 327 -404 -417 -418 0
31 41 49 59 51 53 55 57 47 43 45 35 39 33 37 -303 -304 308 -312 -313 -323 -324 -325 -326 327 -404 -417 -418 0
31 41 49 59 51 53 55 57 47 43 45 35 39 33 37 -303 -304 -312 -313 -323 -324 -325 -326 327 328 -404 -417 -418 0
31 41 49 59 51 53 55 57 47 43 45 35 39 33 37 -303 -304 308 -312 -313 -323 -324 -325 -326 327 328 -404 -417 -418 0
31 41 49 59 51 53 55 57 47 43 45 35 39 33 37 -303 -304 307 -312 -313 -323 -324 -325 -326 -404 -417 -418 0
31 41 49 59 51 53 55 57 47 43 45 35 39 33 37 -303 -304 307 308 -312 -313 -323 -324 -325 -326 -404 -417 -418 0
31 41 49 59 51 53 55 57 47 43 45 35 39 33 37 -303 -304 307 -312 -313 -323 -324 -325 -326 328 -404 -417 -418 0
31 41 49 59 51 53 55 57 47 43 45 35 39 33 37 -303 -304 307 308 -312 -313 -323 -324 -325 -326 328 -404 -417 -418 0
31 41 49 59 51 53 55 57 47 43 45 35 39 33 37 -303 -304 307 -312 -313 -323 -324 -325 -326 327 -404 -417 -418 0
31 41 49 59 51 53 55 57 47 43 45 35 39 33 37 -303 -304 307 308 -312 -313 -323 -324 -325 -326 327 -404 -417 -418 0
31 41 49 59 51 53 55 57 47 43 45 35 39 33 37 -303 -304 307 -312 -313 -323 -324 -325 -326 327 328 -404 -417 -418 0
31 41 49 59 51 53 55 57 47 43 45 35 39 33 37 -303 -304 307 308 -312 -313 -323 -324 -325 -326 327 328 -404 -417 -418 0
61 -418 -419 0
-61 418 -419 0
419 -61 -418 0
61 418 419 0
-202 419 -420 0
61 202 -420 0
-202 -419 420 0
-61 202 420 0
61 419 -420 0
-61 -419 420 0
93 -420 -421 0
-93 420 -421 0
421 -93 -420 0
93 420 421 0
421 422 0
-416 422 0
-414 422 0
412 422 0
408 422 0
403 422 0
400 422 0
397 422 0
-393 422 0
391 422 0
388 422 0
385 422 0
382 422 0
378 422 0
374 422 0
371 422 0
367 422 0
-363 422 0
362 422 0
358 422 0
355 422 0
352 422 0
349 422 0
346 422 0
343 422 0
340 422 0
336 422 0
332 422 0
311 422 0
295 422 0
291 422 0
287 422 0
283 422 0
279 422 0
275 422 0
210 422 0
207 422 0
204 422 0
-204 -207 -210 -275 -279 -283 -287 -291 -295 -311 -332 -336 -340 -343 -346 -349 -352 -355 -358 -362 363 -367 -371 -374 -378 -382 -385 -388 -391 393 -397 -400 -403 -408 -412 414 416 -421 -422 0
-167 -422 0
167 -200 0
